c uprop, v00.0, 
c reading from data/prog958.c.cnf
c done reading: 0.005104
p cnf 142 590
-36 -59 0
-36 -54 0
36 54 59 0
-47 54 59 0
-47 -54 -59 0
47 54 -59 0
47 -54 59 0
36 -45 0
-43 -45 0
-36 43 45 0
-36 -41 43 0
36 -41 -43 0
36 41 43 0
-36 41 -43 0
-38 45 0
-38 -48 0
38 -45 48 0
-34 -45 48 0
-34 45 -48 0
34 45 48 0
34 -45 -48 0
-31 38 0
31 -38 0
-38 -57 0
38 57 0
31 -52 0
-31 52 0
-31 -62 0
31 62 0
52 -65 0
-52 65 0
-52 -68 0
52 68 0
65 -71 0
-65 71 0
-65 -74 0
65 74 0
54 -77 0
59 -77 0
-54 -59 77 0
-54 -59 -80 0
54 59 -80 0
-54 59 80 0
54 -59 80 0
-43 -54 83 0
-43 -77 83 0
-54 -77 83 0
43 54 -83 0
43 77 -83 0
54 77 -83 0
43 -83 -85 0
54 -83 -85 0
77 -83 -85 0
-43 83 85 0
-54 83 85 0
-77 83 85 0
-43 -54 -77 85 0
43 54 77 -85 0
-43 -48 87 0
-48 -83 87 0
-43 -83 87 0
43 48 -87 0
48 83 -87 0
43 83 -87 0
48 -87 -88 0
43 -87 -88 0
83 -87 -88 0
-48 87 88 0
-43 87 88 0
-83 87 88 0
-43 -48 -83 88 0
43 48 83 -88 0
-48 -87 89 0
48 -89 0
87 -89 0
48 87 -89 0
-89 -90 0
48 -89 -90 0
87 -89 -90 0
-48 89 90 0
-87 89 90 0
48 87 -90 0
-89 91 0
89 -91 0
-50 85 0
-50 59 0
50 -59 -85 0
-46 -59 -85 0
-46 59 85 0
46 59 -85 0
46 -59 85 0
29 -54 -88 0
29 -50 -88 0
29 -50 -54 0
-29 54 88 0
-29 50 88 0
-29 50 54 0
-28 -29 88 0
-28 -29 54 0
-28 -29 50 0
28 29 -88 0
28 29 -54 0
28 29 -50 0
28 -50 -54 -88 0
-28 50 54 88 0
27 -43 -90 0
27 -29 -90 0
27 -29 -43 0
-27 43 90 0
-27 29 90 0
-27 29 43 0
-26 -27 90 0
-26 -27 43 0
-26 -27 29 0
26 27 -90 0
26 27 -43 0
26 27 -29 0
26 -29 -43 -90 0
-26 29 43 90 0
25 -48 -91 0
25 -27 -91 0
25 -27 -48 0
-25 48 91 0
-25 27 91 0
-25 27 48 0
-24 -25 91 0
-24 -25 48 0
-24 -25 27 0
24 25 -91 0
24 25 -48 0
24 25 -27 0
24 -27 -48 -91 0
-24 27 48 91 0
23 -25 0
-23 25 0
-22 28 0
-22 59 0
22 -28 -59 0
-21 -28 -59 0
-21 28 59 0
21 -28 59 0
21 28 -59 0
20 -26 -54 0
20 -22 -26 0
20 -22 -54 0
-20 26 54 0
-20 22 26 0
-20 22 54 0
-19 -20 26 0
-19 -20 54 0
-19 -20 22 0
19 20 -26 0
19 20 -54 0
19 20 -22 0
19 -22 -26 -54 0
-19 22 26 54 0
18 -24 -43 0
18 -20 -24 0
18 -20 -43 0
-18 24 43 0
-18 20 24 0
-18 20 43 0
-17 -18 24 0
-17 -18 43 0
-17 -18 20 0
17 18 -24 0
17 18 -43 0
17 18 -20 0
17 -20 -24 -43 0
-17 20 24 43 0
-23 -48 0
-18 -23 0
-18 -48 0
16 -23 0
16 -48 0
16 -18 0
16 -18 -23 -48 0
-16 18 23 48 0
-40 -59 0
-40 -80 0
40 59 80 0
-37 59 80 0
-37 -59 -80 0
37 -59 80 0
37 59 -80 0
-33 40 0
-33 -46 0
33 -40 46 0
-30 -40 46 0
-30 40 -46 0
30 40 46 0
30 -40 -46 0
33 -56 0
-21 -56 0
21 -33 56 0
21 -33 -51 0
-21 33 -51 0
21 33 51 0
-21 -33 51 0
56 -61 0
-19 -61 0
19 -56 61 0
19 -56 -64 0
-19 56 -64 0
19 56 64 0
-19 -56 64 0
61 -67 0
-17 -67 0
17 -61 67 0
17 -61 -70 0
-17 61 -70 0
17 61 70 0
-17 -61 70 0
67 -73 0
-16 -73 0
16 -67 73 0
16 -67 -76 0
-16 67 -76 0
16 67 76 0
-16 -67 76 0
73 -79 0
-73 79 0
-73 -82 0
73 82 0
79 -84 0
-79 84 0
-79 -86 0
79 86 0
84 -92 0
-84 92 0
-84 -93 0
84 93 0
92 -94 0
-92 94 0
-92 -95 0
92 95 0
94 -96 0
-94 96 0
-94 -97 0
94 97 0
-98 -100 0
-100 -101 0
98 100 101 0
98 101 -103 0
-98 -101 -103 0
-98 101 103 0
98 -101 103 0
100 -104 0
-104 -105 0
-100 104 105 0
-100 105 -107 0
100 -105 -107 0
100 105 107 0
-100 -105 107 0
104 -108 0
-108 -109 0
-104 108 109 0
-104 109 -111 0
104 -109 -111 0
104 109 111 0
-104 -109 111 0
108 -112 0
-112 -113 0
-108 112 113 0
-108 113 -115 0
108 -113 -115 0
108 113 115 0
-108 -113 115 0
112 -116 0
-116 -117 0
-112 116 117 0
-112 117 -119 0
112 -117 -119 0
112 117 119 0
-112 -117 119 0
116 -120 0
-120 -121 0
-116 120 121 0
-60 -116 121 0
-60 116 -121 0
60 116 121 0
60 -116 -121 0
-55 120 0
-55 -123 0
55 -120 123 0
-44 -120 123 0
-44 120 -123 0
44 120 123 0
44 -120 -123 0
-49 101 0
-49 98 0
49 -98 -101 0
-98 -101 -125 0
98 101 -125 0
98 -101 125 0
-98 101 125 0
-101 -105 126 0
-49 -105 126 0
-49 -101 126 0
101 105 -126 0
49 105 -126 0
49 101 -126 0
105 -126 -127 0
101 -126 -127 0
49 -126 -127 0
-105 126 127 0
-101 126 127 0
-49 126 127 0
-49 -101 -105 127 0
49 101 105 -127 0
-105 -109 128 0
-109 -126 128 0
-105 -126 128 0
105 109 -128 0
109 126 -128 0
105 126 -128 0
-99 109 -128 0
-99 105 -128 0
-99 126 -128 0
99 -109 128 0
99 -105 128 0
99 -126 128 0
99 -105 -109 -126 0
-99 105 109 126 0
102 -109 -113 0
102 -113 -128 0
102 -109 -128 0
-102 109 113 0
-102 113 128 0
-102 109 128 0
-102 -106 113 0
-102 -106 109 0
-102 -106 128 0
102 106 -113 0
102 106 -109 0
102 106 -128 0
106 -109 -113 -128 0
-106 109 113 128 0
110 -113 -117 0
-102 110 -117 0
-102 110 -113 0
-110 113 117 0
102 -110 117 0
102 -110 113 0
-110 -114 117 0
-110 113 -114 0
102 -110 -114 0
110 114 -117 0
110 -113 114 0
-102 110 114 0
-102 -113 114 -117 0
102 113 -114 117 0
-117 118 -121 0
-110 118 -121 0
-110 -117 118 0
117 -118 121 0
110 -118 121 0
110 117 -118 0
-118 121 -122 0
117 -118 -122 0
110 -118 -122 0
118 -121 122 0
-117 118 122 0
-110 118 122 0
-110 -117 -121 122 0
110 117 121 -122 0
-121 -123 124 0
-118 -123 124 0
-118 -121 124 0
121 123 -124 0
118 123 -124 0
118 121 -124 0
123 -124 -129 0
121 -124 -129 0
118 -124 -129 0
-123 124 129 0
-121 124 129 0
-118 124 129 0
-118 -121 -123 129 0
118 121 123 -129 0
123 -130 0
124 -130 0
-123 -124 130 0
-123 -124 -131 0
123 124 -131 0
-123 124 131 0
123 -124 131 0
99 -132 0
98 -132 0
-98 -99 132 0
-98 -99 -133 0
98 99 -133 0
98 -99 133 0
-98 99 133 0
-101 -106 134 0
-106 -132 134 0
-101 -132 134 0
101 106 -134 0
106 132 -134 0
101 132 -134 0
106 -134 -135 0
101 -134 -135 0
132 -134 -135 0
-106 134 135 0
-101 134 135 0
-132 134 135 0
-101 -106 -132 135 0
101 106 132 -135 0
-105 -114 136 0
-114 -134 136 0
-105 -134 136 0
105 114 -136 0
114 134 -136 0
105 134 -136 0
114 -136 -137 0
105 -136 -137 0
134 -136 -137 0
-114 136 137 0
-105 136 137 0
-134 136 137 0
-105 -114 -134 137 0
105 114 134 -137 0
-109 -122 138 0
-122 -136 138 0
-109 -136 138 0
109 122 -138 0
122 136 -138 0
109 136 -138 0
122 -138 -139 0
109 -138 -139 0
136 -138 -139 0
-122 138 139 0
-109 138 139 0
-136 138 139 0
-109 -122 -136 139 0
109 122 136 -139 0
-113 -129 140 0
-129 -138 140 0
-113 -138 140 0
113 129 -140 0
129 138 -140 0
113 138 -140 0
-129 140 0
-113 140 0
-138 140 0
-113 -129 -138 0
-117 -131 141 0
-131 -140 141 0
-117 -140 141 0
117 131 -141 0
131 140 -141 0
117 140 -141 0
-131 141 0
-117 141 0
-140 141 0
-117 -131 -140 0
-121 -130 142 0
-130 -141 142 0
-121 -141 142 0
121 130 -142 0
130 141 -142 0
121 141 -142 0
-130 142 0
-121 142 0
-141 142 0
-121 -130 -141 0
-123 -142 0
-123 142 0
123 -142 0
-42 -98 0
-42 -125 0
42 98 125 0
-39 98 125 0
-39 -98 -125 0
39 -98 125 0
39 98 -125 0
-35 42 0
-35 -127 0
35 -42 127 0
-32 -42 127 0
-32 42 -127 0
32 42 127 0
32 -42 -127 0
35 -58 0
-58 -133 0
-35 58 133 0
-35 -53 133 0
35 -53 -133 0
35 53 133 0
-35 53 -133 0
58 -63 0
-63 -135 0
-58 63 135 0
-58 -66 135 0
58 -66 -135 0
58 66 135 0
-58 66 -135 0
63 -69 0
-69 -137 0
-63 69 137 0
-63 -72 137 0
63 -72 -137 0
63 72 137 0
-63 72 -137 0
69 -75 0
-75 -139 0
-69 75 139 0
-69 -78 139 0
69 -78 -139 0
69 78 139 0
-69 78 -139 0
75 -81 0
-75 81 0
-15 -75 0
15 75 0
-14 81 0
14 -81 0
-13 -81 0
13 81 0
-12 14 0
12 -14 0
-11 -14 0
11 14 0
-10 12 0
10 -12 0
-9 -12 0
9 12 0
-8 10 0
8 -10 0
-7 -10 0
7 10 0
-6 59 0
-6 98 0
6 -59 -98 0
-59 98 0
59 -98 0
5 -80 -125 0
5 -6 -80 0
5 -6 -125 0
-5 80 125 0
-5 6 80 0
-5 6 125 0
-5 80 0
-5 125 0
-5 6 0
6 80 125 0
4 -46 -127 0
4 -5 -46 0
4 -5 -127 0
-4 46 127 0
-4 5 46 0
-4 5 127 0
4 -46 0
4 -127 0
4 -5 0
-5 -46 -127 0
3 -21 -133 0
3 -4 -21 0
3 -4 -133 0
-3 21 133 0
-3 4 21 0
-3 4 133 0
3 -21 0
3 -133 0
3 -4 0
-4 -21 -133 0
2 -19 -135 0
2 -3 -19 0
2 -3 -135 0
-2 19 135 0
-2 3 19 0
-2 3 135 0
-2 19 0
-2 135 0
-2 3 0
3 19 135 0
1 -17 -137 0
1 -2 -17 0
1 -2 -137 0
-1 17 137 0
-1 2 17 0
-1 2 137 0
1 -17 0
1 -137 0
1 -2 0
-2 -17 -137 0
-16 -139 0
-1 -16 0
-1 -139 0
1 16 139 0
